21
1 0 8
2 0 5
2 1 12
3 0 7
3 1 2
3 2 1
4 0 4
4 1 2
4 2 12
4 3 3
5 0 6
5 1 13
5 2 12
5 3 8
5 4 15
6 0 14
6 1 13
6 2 5
6 3 11
6 4 12
6 5 3
7 0 7
7 1 3
7 2 9
7 3 11
7 4 15
7 5 6
7 6 6
8 0 2
8 1 1
8 2 2
8 3 13
8 4 3
8 5 8
8 6 13
8 7 6
9 0 14
9 1 14
9 2 7
9 3 14
9 4 14
9 5 9
9 6 1
9 7 9
9 8 6
10 0 12
10 1 14
10 2 6
10 3 5
10 4 15
10 5 14
10 6 13
10 7 5
10 8 7
10 9 14
11 0 12
11 1 4
11 2 2
11 3 15
11 4 4
11 5 5
11 6 8
11 7 4
11 8 15
11 9 12
11 10 6
12 0 15
12 1 8
12 2 8
12 3 13
12 4 8
12 5 8
12 6 9
12 7 3
12 8 7
12 9 1
12 10 2
12 11 10
13 0 7
13 1 7
13 2 12
13 3 8
13 4 7
13 5 13
13 6 3
13 7 7
13 8 9
13 9 12
13 10 13
13 11 6
13 12 3
14 0 8
14 1 4
14 2 5
14 3 5
14 4 8
14 5 2
14 6 15
14 7 8
14 8 9
14 9 9
14 10 1
14 11 2
14 12 2
14 13 15
15 0 6
15 1 14
15 2 2
15 3 5
15 4 10
15 5 2
15 6 13
15 7 12
15 8 4
15 9 2
15 10 13
15 11 10
15 12 11
15 13 14
15 14 5
16 0 12
16 1 15
16 2 13
16 3 9
16 4 6
16 5 1
16 6 7
16 7 2
16 8 3
16 9 4
16 10 7
16 11 12
16 12 7
16 13 13
16 14 8
16 15 5
17 0 8
17 1 8
17 2 13
17 3 7
17 4 11
17 5 2
17 6 6
17 7 6
17 8 8
17 9 6
17 10 4
17 11 12
17 12 12
17 13 10
17 14 7
17 15 15
17 16 9
18 0 9
18 1 2
18 2 13
18 3 1
18 4 9
18 5 11
18 6 11
18 7 2
18 8 12
18 9 9
18 10 3
18 11 15
18 12 8
18 13 14
18 14 9
18 15 1
18 16 1
18 17 14
19 0 9
19 1 5
19 2 7
19 3 4
19 4 4
19 5 10
19 6 2
19 7 13
19 8 11
19 9 7
19 10 1
19 11 7
19 12 3
19 13 1
19 14 15
19 15 15
19 16 12
19 17 4
19 18 11
20 0 15
20 1 2
20 2 15
20 3 15
20 4 2
20 5 6
20 6 9
20 7 5
20 8 3
20 9 10
20 10 9
20 11 6
20 12 11
20 13 12
20 14 6
20 15 9
20 16 11
20 17 11
20 18 7
20 19 5
